n_res = 4;
rcap = [10, 12, 59, 58];
rtype = [1, 1, 2, 2];
n_tasks = 16;
modes = [ {1, 2}, {3, 4}, {5, 6}, {7, 8}, {9, 10}, {11, 12}, {13, 14}, {15, 16}, {17, 18}, {19, 20}, {21, 22}, {23, 24}, {25, 26}, {27, 28}, {29, 30}, {31, 32} ];
succ = [ {8, 10, 13}, {7, 8}, {4, 7}, {5, 6, 11}, {12, 16}, {9, 12, 13}, {10, 14}, {12, 15}, {10}, {15, 16}, {13}, {14}, {14, 15, 16}, {}, {}, {} ];
n_opt = 32;
dur = [1, 2, 5, 7, 4, 6, 1, 9, 5, 7, 3, 9, 2, 3, 1, 10, 2, 10, 1, 4, 1, 5, 8, 10, 2, 5, 1, 7, 3, 7, 5, 9];
rreq = [|  7,  6,  0,  7,  6,  0,  7,  0,  6,  4,  3,  0,  0,  0,  0,  0,  0,  9,  0,  0,  6,  0,  5,  0,  5,  5,  0,  0,  9,  0,  0,  6
        |  0,  0, 10,  0,  0,  8,  0,  1,  0,  0,  0,  6,  7,  1,  7,  6,  2,  0,  5,  4,  0,  5,  0,  4,  0,  0, 10, 10,  0,  4,  1,  0
        |  0,  4,  4,  0,  0,  0,  0,  0,  5,  0,  6,  0, 10,  7,  0,  6,  0,  2,  0,  5,  4,  2,  0,  8,  0,  0,  6,  5,  0,  6,  8,  1
        |  6,  0,  0,  1,  8,  3, 10,  2,  0,  5,  0,  7,  0,  0,  9,  0,  4,  0,  5,  0,  0,  0,  8,  0,  7,  6,  0,  0,  3,  0,  0,  0 |];
